\ENCODING=ISO-8859-1
\Problem name: IloCplex

Minimize
 obj1: 3 x_a_0 + x_a_1 + x_a_2 + 2 x_a_3 + 2 x_a_4 + x_a_5 + 2 x_a_6 + 3 x_a_7
       + 3 x_a_8 + 3 x_a_9 + x_a_10 + x_a_11 + x_a_12 + x_a_13 + 3 x_a_14
       + 2 x_a_15 + 2 x_a_16 + 3 x_a_17 + 2 x_a_18 + 3 x_a_19 + 2 x_a_20
       + x_a_21 + 3 x_a_22 + 3 x_a_23 + 2 x_a_24 + 2 x_a_25 + x_a_26 + 3 x_a_27
       + x_a_28 + 2 x_a_29 + 2 x_a_30 + 3 x_a_31 + 3 x_a_32 + 2 x_a_33 + x_a_34
       + 3 x_a_35 + x_a_36 + 2 x_a_37 + 2 x_a_38 + 2 x_a_39 + x_a_40 + 3 x_a_41
       + 3 x_a_42 + x_a_43 + x_a_44 + x_a_45 + 2 x_a_46 + x_a_47 + 3 x_a_48
       + 3 x_a_49 + x_a_50 + 3 x_a_51 + 2 x_a_52 + 3 x_a_53 + 3 x_a_54
       + 2 x_a_55 + 2 x_a_56 + 2 x_a_57 + x_a_58 + 3 x_a_59 + 2 x_a_60
       + 3 x_a_61 + 2 x_a_62 + 3 x_a_63 + 2 x_a_64 + x_a_65 + 2 x_a_66
       + 2 x_a_67 + 3 x_a_68 + 2 x_a_69 + x_a_70 + 3 x_a_71 + x_a_72 + 3 x_a_73
       + x_a_74 + 3 x_a_75 + 2 x_a_76 + 2 x_a_77 + 2 x_a_78 + 2 x_a_79
       + 3 x_a_80 + 3 x_a_81 + 2 x_a_82 + 2 x_a_83 + 2 x_a_84 + 2 x_a_85
       + x_a_86 + 2 x_a_87 + 2 x_a_88 + 2 x_a_89 + 3 x_a_90 + 3 x_a_91
       + 3 x_a_92 + x_a_93 + x_a_94 + 2 x_a_95 + 2 x_a_96 + x_a_97 + 3 x_a_98
       + 3 x_a_99 + 3 x_a_100 + 3 x_a_101 + 3 x_a_102 + 2 x_a_103 + x_a_104
       + 3 x_a_105 + 2 x_a_106 + 2 x_a_107 + 2 x_a_108 + x_a_109 + 2 x_a_110
       + 3 x_a_111 + 3 x_a_112 + 3 x_a_113 + 3 x_a_114 + x_a_115 + 2 x_a_116
       + 3 x_a_117 + 3 x_a_118 + 2 x_a_119 + 2 x_a_120 + 2 x_a_121 + 2 x_a_122
       + 2 x_a_123 + 3 x_a_124 + 2 x_a_125 + 3 x_a_126 + x_a_127 + x_a_128
       + 2 x_a_129 + 3 x_a_130 + 3 x_a_131 + 3 x_a_132 + 3 x_a_133 + 3 x_a_134
       + 3 x_a_135 + 3 x_a_136 + 2 x_a_137 + x_a_138 + 2 x_a_139 + x_a_140
       + 2 x_a_141 + 3 x_a_142 + 3 x_a_143 + 2 x_a_144 + 2 x_a_145 + 2 x_a_146
       + 3 x_a_147 + 3 x_a_148 + x_a_149 + 2 x_a_150 + 3 x_a_151 + 2 x_a_152
       + 2 x_a_153 + 3 x_a_154 + 2 x_a_155 + 3 x_a_156 + 1000000000 x_a_157
       + 1000000000 x_a_158 + 1000000000 x_a_159 + 1000000000 x_a_160
       + 1000000000 x_a_161 + 1000000000 x_a_162 + 1000000000 x_a_163
       + 1000000000 x_a_164 + 1000000000 x_a_165 + 1000000000 x_a_166
       + 1000000000 x_a_167 + 1000000000 x_a_168 + 1000000000 x_a_169
       + 1000000000 x_a_170 + 1000000000 x_a_171 + 1000000000 x_a_172
       + 1000000000 x_a_173 + 1000000000 x_a_174 + 1000000000 x_a_175
       + 1000000000 x_a_176 + 10000 x_a_177
Subject To
 c1:   y_a_157 + y_a_158 + y_a_159 + y_a_160 + y_a_161 + y_a_162 + y_a_163
       + y_a_164 + y_a_165 + y_a_166 <= 168.6
 c2:   y_a_0 + y_a_1 + y_a_2 + y_a_3 + y_a_4 + y_a_5 + y_a_6 + y_a_7 + y_a_8
        = 0
 c3:   - y_a_0 + y_a_9 + y_a_10  = 0
 c4:   - y_a_1 + y_a_11 + y_a_12 + y_a_13 + y_a_14 + y_a_15 + y_a_16 + y_a_17
       + y_a_18  = 0
 c5:   - y_a_2 - y_a_11 + y_a_19 + y_a_20 + y_a_21 + y_a_22 + y_a_23 + y_a_24
        = 0
 c6:   - y_a_9 - y_a_12 + y_a_25 + y_a_26 + y_a_27 + y_a_28 + y_a_29 + y_a_30
        = 0
 c7:   - y_a_3 - y_a_19 + y_a_31 + y_a_32  = 0
 c8:   - y_a_13 + y_a_33 + y_a_34 + y_a_35 + y_a_36 + y_a_37 + y_a_38 + y_a_39
       + y_a_40  = 0
 c9:   - y_a_4 + y_a_41 + y_a_42 + y_a_43 + y_a_44 + y_a_45  = 0
 c10:  - y_a_161 - y_a_14 + y_a_46 + y_a_47 + y_a_48 + y_a_49 + y_a_50  = 0
 c11:  - y_a_165 - y_a_5 - y_a_20 - y_a_33 + y_a_51 + y_a_52 + y_a_53 + y_a_54
       + y_a_55  = 0
 c12:  - y_a_6 + y_a_56 + y_a_57 + y_a_58 + y_a_59 + y_a_60  = 0
 c13:  - y_a_158 - y_a_10 + y_a_61 + y_a_62 + y_a_63 + y_a_64 + y_a_65  = 0
 c14:  - y_a_21 - y_a_46 + y_a_66 + y_a_67 + y_a_68  = 0
 c15:  - y_a_25 - y_a_61 + y_a_69 + y_a_70 + y_a_71 + y_a_72 + y_a_73 + y_a_74
        = 0
 c16:  - y_a_62 - y_a_69 + y_a_75 + y_a_76 + y_a_77 + y_a_78  = 0
 c17:  - y_a_22 - y_a_51 + y_a_79 + y_a_80 + y_a_81 + y_a_82 + y_a_83  = 0
 c18:  - y_a_34 - y_a_79 + y_a_84 + y_a_85 + y_a_86 + y_a_87 + y_a_170  = 0
 c19:  - y_a_26 - y_a_63 - y_a_70 - y_a_84 + y_a_88 + y_a_89 + y_a_90 + y_a_91
       + y_a_92 + y_a_93 + y_a_167  = 0
 c20:  - y_a_47 - y_a_80 + y_a_94 + y_a_95 + y_a_96 + y_a_97 + y_a_98 + y_a_99
       + y_a_100 + y_a_101 + y_a_102  = 0
 c21:  - y_a_31 - y_a_66 - y_a_85 - y_a_94 + y_a_103 + y_a_104 + y_a_105
       + y_a_106 + y_a_172  = 0
 c22:  - y_a_23 - y_a_52 - y_a_56 + y_a_107 + y_a_108 + y_a_109 + y_a_110
       + y_a_173  = 0
 c23:  - y_a_41 - y_a_75 + y_a_111 + y_a_112 + y_a_113  = 0
 c24:  - y_a_162 - y_a_67 - y_a_111 + y_a_114 + y_a_115 + y_a_116  = 0
 c25:  - y_a_27 - y_a_42 - y_a_76 - y_a_86 + y_a_117 + y_a_118 + y_a_119  = 0
 c26:  - y_a_28 - y_a_48 - y_a_71 + y_a_120 + y_a_121 + y_a_122 + y_a_123  = 0
 c27:  - y_a_160 - y_a_15 - y_a_57 - y_a_88 - y_a_107 - y_a_120 + y_a_124
       + y_a_125 + y_a_126 + y_a_127  = 0
 c28:  - y_a_157 - y_a_24 - y_a_89 - y_a_108 + y_a_128 + y_a_129  = 0
 c29:  - y_a_90 - y_a_95 - y_a_121 + y_a_130 + y_a_131 + y_a_132 + y_a_133  = 0
 c30:  - y_a_166 - y_a_16 - y_a_81 - y_a_87 - y_a_96 - y_a_103 - y_a_130
       + y_a_134 + y_a_135  = 0
 c31:  - y_a_58 - y_a_82 - y_a_91 - y_a_124 - y_a_128 + y_a_136 + y_a_176  = 0
 c32:  - y_a_29 - y_a_43 - y_a_109 - y_a_131 - y_a_136 + y_a_175  = 0
 c33:  - y_a_159 - y_a_97 - y_a_122 - y_a_129 + y_a_137 + y_a_138 + y_a_139
       + y_a_140  = 0
 c34:  - y_a_17 - y_a_49 - y_a_59 - y_a_72 - y_a_112 - y_a_125 - y_a_132
       - y_a_137  = 0
 c35:  - y_a_53 - y_a_64 - y_a_77 - y_a_92 - y_a_138 + y_a_141 + y_a_142  = 0
 c36:  - y_a_7 - y_a_35 - y_a_83 - y_a_98 - y_a_104 + y_a_143 + y_a_144
       + y_a_145  = 0
 c37:  - y_a_8 - y_a_36 - y_a_60 - y_a_99 - y_a_114 - y_a_139 - y_a_141  = 0
 c38:  - y_a_37 - y_a_123 - y_a_133 - y_a_134 + y_a_146 + y_a_147 + y_a_168
       + y_a_169  = 0
 c39:  - y_a_100 - y_a_143 + y_a_148 + y_a_149 + y_a_150  = 0
 c40:  - y_a_54 - y_a_78 - y_a_105 - y_a_115 + y_a_151 + y_a_152  = 0
 c41:  - y_a_126 + y_a_153  = 0
 c42:  - y_a_163 - y_a_18 - y_a_32 - y_a_38 - y_a_73 - y_a_106  = 0
 c43:  - y_a_164 - y_a_44 - y_a_74 - y_a_117 - y_a_146 - y_a_148 - y_a_153  = 0
 c44:  - y_a_65 - y_a_101 - y_a_116 - y_a_140 - y_a_149  = 0
 c45:  - y_a_93 - y_a_110 - y_a_118 + y_a_154  = 0
 c46:  - y_a_30 - y_a_68 - y_a_144 + y_a_155  = 0
 c47:  - y_a_39 - y_a_50 - y_a_135 - y_a_142 - y_a_147 - y_a_151 - y_a_154  = 0
 c48:  - y_a_45 - y_a_55 - y_a_102 - y_a_113 - y_a_119 - y_a_127 - y_a_145
       - y_a_150 + y_a_156 + y_a_171 + y_a_174  = 0
 c49:  - y_a_40 - y_a_152 - y_a_155 - y_a_156  = 0
 c50:  y_a_157 + y_a_158 + y_a_159 + y_a_160 + y_a_161 + y_a_162 + y_a_163
       + y_a_164 + y_a_165 + y_a_166 - y_a_177  = 0
 c51:  - y_a_170 - y_a_167 - y_a_172 - y_a_173 - y_a_176 - y_a_175 - y_a_168
       - y_a_169 - y_a_171 - y_a_174 + y_a_177  = 0
 c52:  y_a_0 + 49 x_a_0 <= 49
 c53:  y_a_1 + 18 x_a_1 <= 18
 c54:  y_a_2 + 44 x_a_2 <= 44
 c55:  y_a_3 + 28 x_a_3 <= 28
 c56:  y_a_4 + 14 x_a_4 <= 14
 c57:  y_a_5 + 35 x_a_5 <= 35
 c58:  y_a_6 + 4 x_a_6 <= 4
 c59:  y_a_7 + 39 x_a_7 <= 39
 c60:  y_a_8 + 39 x_a_8 <= 39
 c61:  y_a_9 + 43 x_a_9 <= 43
 c62:  y_a_10 + 2 x_a_10 <= 2
 c63:  y_a_11 + 26 x_a_11 <= 26
 c64:  y_a_12 + 18 x_a_12 <= 18
 c65:  y_a_13 + 3 x_a_13 <= 3
 c66:  y_a_14 + 30 x_a_14 <= 30
 c67:  y_a_15 + 32 x_a_15 <= 32
 c68:  y_a_16 + 19 x_a_16 <= 19
 c69:  y_a_17 + 23 x_a_17 <= 23
 c70:  y_a_18 + 11 x_a_18 <= 11
 c71:  y_a_19 + 9 x_a_19 <= 9
 c72:  y_a_20 + 3 x_a_20 <= 3
 c73:  y_a_21 + 20 x_a_21 <= 20
 c74:  y_a_22 + 13 x_a_22 <= 13
 c75:  y_a_23 + 48 x_a_23 <= 48
 c76:  y_a_24 + 24 x_a_24 <= 24
 c77:  y_a_25 + 6 x_a_25 <= 6
 c78:  y_a_26 + 3 x_a_26 <= 3
 c79:  y_a_27 + 18 x_a_27 <= 18
 c80:  y_a_28 + 40 x_a_28 <= 40
 c81:  y_a_29 + 23 x_a_29 <= 23
 c82:  y_a_30 + 8 x_a_30 <= 8
 c83:  y_a_31 + 40 x_a_31 <= 40
 c84:  y_a_32 + 41 x_a_32 <= 41
 c85:  y_a_33 + 32 x_a_33 <= 32
 c86:  y_a_34 + 42 x_a_34 <= 42
 c87:  y_a_35 + 26 x_a_35 <= 26
 c88:  y_a_36 + 10 x_a_36 <= 10
 c89:  y_a_37 + 44 x_a_37 <= 44
 c90:  y_a_38 + 43 x_a_38 <= 43
 c91:  y_a_39 + 49 x_a_39 <= 49
 c92:  y_a_40 + 20 x_a_40 <= 20
 c93:  y_a_41 + 21 x_a_41 <= 21
 c94:  y_a_42 + 5 x_a_42 <= 5
 c95:  y_a_43 + 11 x_a_43 <= 11
 c96:  y_a_44 + 15 x_a_44 <= 15
 c97:  y_a_45 + 23 x_a_45 <= 23
 c98:  y_a_46 + 31 x_a_46 <= 31
 c99:  y_a_47 + 39 x_a_47 <= 39
 c100: y_a_48 + 32 x_a_48 <= 32
 c101: y_a_49 + 31 x_a_49 <= 31
 c102: y_a_50 + 10 x_a_50 <= 10
 c103: y_a_51 + 46 x_a_51 <= 46
 c104: y_a_52 + 9 x_a_52 <= 9
 c105: y_a_53 + 49 x_a_53 <= 49
 c106: y_a_54 + 30 x_a_54 <= 30
 c107: y_a_55 + 9 x_a_55 <= 9
 c108: y_a_56 + 13 x_a_56 <= 13
 c109: y_a_57 + 26 x_a_57 <= 26
 c110: y_a_58 + 26 x_a_58 <= 26
 c111: y_a_59 + 41 x_a_59 <= 41
 c112: y_a_60 + 18 x_a_60 <= 18
 c113: y_a_61 + 27 x_a_61 <= 27
 c114: y_a_62 + 13 x_a_62 <= 13
 c115: y_a_63 + 11 x_a_63 <= 11
 c116: y_a_64 + 46 x_a_64 <= 46
 c117: y_a_65 + 8 x_a_65 <= 8
 c118: y_a_66 + 4 x_a_66 <= 4
 c119: y_a_67 + 31 x_a_67 <= 31
 c120: y_a_68 + 22 x_a_68 <= 22
 c121: y_a_69 + 16 x_a_69 <= 16
 c122: y_a_70 + 49 x_a_70 <= 49
 c123: y_a_71 + 5 x_a_71 <= 5
 c124: y_a_72 + 41 x_a_72 <= 41
 c125: y_a_73 + 21 x_a_73 <= 21
 c126: y_a_74 + 18 x_a_74 <= 18
 c127: y_a_75 + x_a_75 <= 1
 c128: y_a_76 + 47 x_a_76 <= 47
 c129: y_a_77 + 6 x_a_77 <= 6
 c130: y_a_78 + 36 x_a_78 <= 36
 c131: y_a_79 + 41 x_a_79 <= 41
 c132: y_a_80 + 12 x_a_80 <= 12
 c133: y_a_81 + x_a_81 <= 1
 c134: y_a_82 + 24 x_a_82 <= 24
 c135: y_a_83 + 14 x_a_83 <= 14
 c136: y_a_84 + 9 x_a_84 <= 9
 c137: y_a_85 + 14 x_a_85 <= 14
 c138: y_a_86 + 7 x_a_86 <= 7
 c139: y_a_87 + 16 x_a_87 <= 16
 c140: y_a_88 + 43 x_a_88 <= 43
 c141: y_a_89 + 49 x_a_89 <= 49
 c142: y_a_90 + 44 x_a_90 <= 44
 c143: y_a_91 + 33 x_a_91 <= 33
 c144: y_a_92 + 4 x_a_92 <= 4
 c145: y_a_93 + 41 x_a_93 <= 41
 c146: y_a_94 + 42 x_a_94 <= 42
 c147: y_a_95 + 26 x_a_95 <= 26
 c148: y_a_96 + 28 x_a_96 <= 28
 c149: y_a_97 + 40 x_a_97 <= 40
 c150: y_a_98 + 31 x_a_98 <= 31
 c151: y_a_99 + 32 x_a_99 <= 32
 c152: y_a_100 + 12 x_a_100 <= 12
 c153: y_a_101 + 40 x_a_101 <= 40
 c154: y_a_102 + 26 x_a_102 <= 26
 c155: y_a_103 + 4 x_a_103 <= 4
 c156: y_a_104 + 28 x_a_104 <= 28
 c157: y_a_105 + 36 x_a_105 <= 36
 c158: y_a_106 + 26 x_a_106 <= 26
 c159: y_a_107 + 49 x_a_107 <= 49
 c160: y_a_108 + 20 x_a_108 <= 20
 c161: y_a_109 + 8 x_a_109 <= 8
 c162: y_a_110 + 14 x_a_110 <= 14
 c163: y_a_111 + 29 x_a_111 <= 29
 c164: y_a_112 + 9 x_a_112 <= 9
 c165: y_a_113 + 48 x_a_113 <= 48
 c166: y_a_114 + 42 x_a_114 <= 42
 c167: y_a_115 + 45 x_a_115 <= 45
 c168: y_a_116 + 12 x_a_116 <= 12
 c169: y_a_117 + x_a_117 <= 1
 c170: y_a_118 + 19 x_a_118 <= 19
 c171: y_a_119 + 20 x_a_119 <= 20
 c172: y_a_120 + 35 x_a_120 <= 35
 c173: y_a_121 + 42 x_a_121 <= 42
 c174: y_a_122 + 23 x_a_122 <= 23
 c175: y_a_123 + 35 x_a_123 <= 35
 c176: y_a_124 + 6 x_a_124 <= 6
 c177: y_a_125 + 27 x_a_125 <= 27
 c178: y_a_126 + 26 x_a_126 <= 26
 c179: y_a_127 + 20 x_a_127 <= 20
 c180: y_a_128 + 30 x_a_128 <= 30
 c181: y_a_129 + 41 x_a_129 <= 41
 c182: y_a_130 + 2 x_a_130 <= 2
 c183: y_a_131 + 40 x_a_131 <= 40
 c184: y_a_132 + 23 x_a_132 <= 23
 c185: y_a_133 + 16 x_a_133 <= 16
 c186: y_a_134 + 35 x_a_134 <= 35
 c187: y_a_135 + 19 x_a_135 <= 19
 c188: y_a_136 + 5 x_a_136 <= 5
 c189: y_a_137 + 16 x_a_137 <= 16
 c190: y_a_138 + 48 x_a_138 <= 48
 c191: y_a_139 + 8 x_a_139 <= 8
 c192: y_a_140 + 41 x_a_140 <= 41
 c193: y_a_141 + 25 x_a_141 <= 25
 c194: y_a_142 + 10 x_a_142 <= 10
 c195: y_a_143 + 24 x_a_143 <= 24
 c196: y_a_144 + 21 x_a_144 <= 21
 c197: y_a_145 + x_a_145 <= 1
 c198: y_a_146 + 20 x_a_146 <= 20
 c199: y_a_147 + 26 x_a_147 <= 26
 c200: y_a_148 + 13 x_a_148 <= 13
 c201: y_a_149 + 34 x_a_149 <= 34
 c202: y_a_150 + 27 x_a_150 <= 27
 c203: y_a_151 + x_a_151 <= 1
 c204: y_a_152 + 21 x_a_152 <= 21
 c205: y_a_153 + 28 x_a_153 <= 28
 c206: y_a_154 + 31 x_a_154 <= 31
 c207: y_a_155 + 18 x_a_155 <= 18
 c208: y_a_156 + 2 x_a_156 <= 2
 c209: y_a_157 + 50000000 x_a_157 <= 50000000
 c210: y_a_158 + 50000000 x_a_158 <= 50000000
 c211: y_a_159 + 50000000 x_a_159 <= 50000000
 c212: y_a_160 + 50000000 x_a_160 <= 50000000
 c213: y_a_161 + 50000000 x_a_161 <= 50000000
 c214: y_a_162 + 50000000 x_a_162 <= 50000000
 c215: y_a_163 + 50000000 x_a_163 <= 50000000
 c216: y_a_164 + 50000000 x_a_164 <= 50000000
 c217: y_a_165 + 50000000 x_a_165 <= 50000000
 c218: y_a_166 + 50000000 x_a_166 <= 50000000
 c219: y_a_167 + 50000000 x_a_167 <= 50000000
 c220: y_a_168 + 50000000 x_a_168 <= 50000000
 c221: y_a_169 + 50000000 x_a_169 <= 50000000
 c222: y_a_170 + 50000000 x_a_170 <= 50000000
 c223: y_a_171 + 50000000 x_a_171 <= 50000000
 c224: y_a_172 + 50000000 x_a_172 <= 50000000
 c225: y_a_173 + 50000000 x_a_173 <= 50000000
 c226: y_a_174 + 50000000 x_a_174 <= 50000000
 c227: y_a_175 + 50000000 x_a_175 <= 50000000
 c228: y_a_176 + 50000000 x_a_176 <= 50000000
 c229: y_a_177 + 10000 x_a_177 <= 10000
Bounds
 0 <= x_a_0 <= 1
 0 <= x_a_1 <= 1
 0 <= x_a_2 <= 1
 0 <= x_a_3 <= 1
 0 <= x_a_4 <= 1
 0 <= x_a_5 <= 1
 0 <= x_a_6 <= 1
 0 <= x_a_7 <= 1
 0 <= x_a_8 <= 1
 0 <= x_a_9 <= 1
 0 <= x_a_10 <= 1
 0 <= x_a_11 <= 1
 0 <= x_a_12 <= 1
 0 <= x_a_13 <= 1
 0 <= x_a_14 <= 1
 0 <= x_a_15 <= 1
 0 <= x_a_16 <= 1
 0 <= x_a_17 <= 1
 0 <= x_a_18 <= 1
 0 <= x_a_19 <= 1
 0 <= x_a_20 <= 1
 0 <= x_a_21 <= 1
 0 <= x_a_22 <= 1
 0 <= x_a_23 <= 1
 0 <= x_a_24 <= 1
 0 <= x_a_25 <= 1
 0 <= x_a_26 <= 1
 0 <= x_a_27 <= 1
 0 <= x_a_28 <= 1
 0 <= x_a_29 <= 1
 0 <= x_a_30 <= 1
 0 <= x_a_31 <= 1
 0 <= x_a_32 <= 1
 0 <= x_a_33 <= 1
 0 <= x_a_34 <= 1
 0 <= x_a_35 <= 1
 0 <= x_a_36 <= 1
 0 <= x_a_37 <= 1
 0 <= x_a_38 <= 1
 0 <= x_a_39 <= 1
 0 <= x_a_40 <= 1
 0 <= x_a_41 <= 1
 0 <= x_a_42 <= 1
 0 <= x_a_43 <= 1
 0 <= x_a_44 <= 1
 0 <= x_a_45 <= 1
 0 <= x_a_46 <= 1
 0 <= x_a_47 <= 1
 0 <= x_a_48 <= 1
 0 <= x_a_49 <= 1
 0 <= x_a_50 <= 1
 0 <= x_a_51 <= 1
 0 <= x_a_52 <= 1
 0 <= x_a_53 <= 1
 0 <= x_a_54 <= 1
 0 <= x_a_55 <= 1
 0 <= x_a_56 <= 1
 0 <= x_a_57 <= 1
 0 <= x_a_58 <= 1
 0 <= x_a_59 <= 1
 0 <= x_a_60 <= 1
 0 <= x_a_61 <= 1
 0 <= x_a_62 <= 1
 0 <= x_a_63 <= 1
 0 <= x_a_64 <= 1
 0 <= x_a_65 <= 1
 0 <= x_a_66 <= 1
 0 <= x_a_67 <= 1
 0 <= x_a_68 <= 1
 0 <= x_a_69 <= 1
 0 <= x_a_70 <= 1
 0 <= x_a_71 <= 1
 0 <= x_a_72 <= 1
 0 <= x_a_73 <= 1
 0 <= x_a_74 <= 1
 0 <= x_a_75 <= 1
 0 <= x_a_76 <= 1
 0 <= x_a_77 <= 1
 0 <= x_a_78 <= 1
 0 <= x_a_79 <= 1
 0 <= x_a_80 <= 1
 0 <= x_a_81 <= 1
 0 <= x_a_82 <= 1
 0 <= x_a_83 <= 1
 0 <= x_a_84 <= 1
 0 <= x_a_85 <= 1
 0 <= x_a_86 <= 1
 0 <= x_a_87 <= 1
 0 <= x_a_88 <= 1
 0 <= x_a_89 <= 1
 0 <= x_a_90 <= 1
 0 <= x_a_91 <= 1
 0 <= x_a_92 <= 1
 0 <= x_a_93 <= 1
 0 <= x_a_94 <= 1
 0 <= x_a_95 <= 1
 0 <= x_a_96 <= 1
 0 <= x_a_97 <= 1
 0 <= x_a_98 <= 1
 0 <= x_a_99 <= 1
 0 <= x_a_100 <= 1
 0 <= x_a_101 <= 1
 0 <= x_a_102 <= 1
 0 <= x_a_103 <= 1
 0 <= x_a_104 <= 1
 0 <= x_a_105 <= 1
 0 <= x_a_106 <= 1
 0 <= x_a_107 <= 1
 0 <= x_a_108 <= 1
 0 <= x_a_109 <= 1
 0 <= x_a_110 <= 1
 0 <= x_a_111 <= 1
 0 <= x_a_112 <= 1
 0 <= x_a_113 <= 1
 0 <= x_a_114 <= 1
 0 <= x_a_115 <= 1
 0 <= x_a_116 <= 1
 0 <= x_a_117 <= 1
 0 <= x_a_118 <= 1
 0 <= x_a_119 <= 1
 0 <= x_a_120 <= 1
 0 <= x_a_121 <= 1
 0 <= x_a_122 <= 1
 0 <= x_a_123 <= 1
 0 <= x_a_124 <= 1
 0 <= x_a_125 <= 1
 0 <= x_a_126 <= 1
 0 <= x_a_127 <= 1
 0 <= x_a_128 <= 1
 0 <= x_a_129 <= 1
 0 <= x_a_130 <= 1
 0 <= x_a_131 <= 1
 0 <= x_a_132 <= 1
 0 <= x_a_133 <= 1
 0 <= x_a_134 <= 1
 0 <= x_a_135 <= 1
 0 <= x_a_136 <= 1
 0 <= x_a_137 <= 1
 0 <= x_a_138 <= 1
 0 <= x_a_139 <= 1
 0 <= x_a_140 <= 1
 0 <= x_a_141 <= 1
 0 <= x_a_142 <= 1
 0 <= x_a_143 <= 1
 0 <= x_a_144 <= 1
 0 <= x_a_145 <= 1
 0 <= x_a_146 <= 1
 0 <= x_a_147 <= 1
 0 <= x_a_148 <= 1
 0 <= x_a_149 <= 1
 0 <= x_a_150 <= 1
 0 <= x_a_151 <= 1
 0 <= x_a_152 <= 1
 0 <= x_a_153 <= 1
 0 <= x_a_154 <= 1
 0 <= x_a_155 <= 1
 0 <= x_a_156 <= 1
 0 <= x_a_157 <= 1
 0 <= x_a_158 <= 1
 0 <= x_a_159 <= 1
 0 <= x_a_160 <= 1
 0 <= x_a_161 <= 1
 0 <= x_a_162 <= 1
 0 <= x_a_163 <= 1
 0 <= x_a_164 <= 1
 0 <= x_a_165 <= 1
 0 <= x_a_166 <= 1
 0 <= x_a_167 <= 1
 0 <= x_a_168 <= 1
 0 <= x_a_169 <= 1
 0 <= x_a_170 <= 1
 0 <= x_a_171 <= 1
 0 <= x_a_172 <= 1
 0 <= x_a_173 <= 1
 0 <= x_a_174 <= 1
 0 <= x_a_175 <= 1
 0 <= x_a_176 <= 1
 0 <= x_a_177 <= 1
Binaries
 x_a_0  x_a_1  x_a_2  x_a_3  x_a_4  x_a_5  x_a_6  x_a_7  x_a_8  x_a_9  x_a_10 
 x_a_11  x_a_12  x_a_13  x_a_14  x_a_15  x_a_16  x_a_17  x_a_18  x_a_19 
 x_a_20  x_a_21  x_a_22  x_a_23  x_a_24  x_a_25  x_a_26  x_a_27  x_a_28 
 x_a_29  x_a_30  x_a_31  x_a_32  x_a_33  x_a_34  x_a_35  x_a_36  x_a_37 
 x_a_38  x_a_39  x_a_40  x_a_41  x_a_42  x_a_43  x_a_44  x_a_45  x_a_46 
 x_a_47  x_a_48  x_a_49  x_a_50  x_a_51  x_a_52  x_a_53  x_a_54  x_a_55 
 x_a_56  x_a_57  x_a_58  x_a_59  x_a_60  x_a_61  x_a_62  x_a_63  x_a_64 
 x_a_65  x_a_66  x_a_67  x_a_68  x_a_69  x_a_70  x_a_71  x_a_72  x_a_73 
 x_a_74  x_a_75  x_a_76  x_a_77  x_a_78  x_a_79  x_a_80  x_a_81  x_a_82 
 x_a_83  x_a_84  x_a_85  x_a_86  x_a_87  x_a_88  x_a_89  x_a_90  x_a_91 
 x_a_92  x_a_93  x_a_94  x_a_95  x_a_96  x_a_97  x_a_98  x_a_99  x_a_100 
 x_a_101  x_a_102  x_a_103  x_a_104  x_a_105  x_a_106  x_a_107  x_a_108 
 x_a_109  x_a_110  x_a_111  x_a_112  x_a_113  x_a_114  x_a_115  x_a_116 
 x_a_117  x_a_118  x_a_119  x_a_120  x_a_121  x_a_122  x_a_123  x_a_124 
 x_a_125  x_a_126  x_a_127  x_a_128  x_a_129  x_a_130  x_a_131  x_a_132 
 x_a_133  x_a_134  x_a_135  x_a_136  x_a_137  x_a_138  x_a_139  x_a_140 
 x_a_141  x_a_142  x_a_143  x_a_144  x_a_145  x_a_146  x_a_147  x_a_148 
 x_a_149  x_a_150  x_a_151  x_a_152  x_a_153  x_a_154  x_a_155  x_a_156 
 x_a_157  x_a_158  x_a_159  x_a_160  x_a_161  x_a_162  x_a_163  x_a_164 
 x_a_165  x_a_166  x_a_167  x_a_168  x_a_169  x_a_170  x_a_171  x_a_172 
 x_a_173  x_a_174  x_a_175  x_a_176  x_a_177 
End
